(declare-fun a () Real)
(declare-fun b () Real)
(declare-fun c () Real)
(declare-fun a2 () Real)
(declare-fun b2 () Real)
(declare-fun c2 () Real)
(declare-fun a5 () Real)
(declare-fun b5 () Real)
(declare-fun c5 () Real)
(declare-fun opt () Real)
(assert (> a 0))
(assert (> b 0))
(assert (> c 0))
(assert (>= 1 (* a b c)))
(assert (= a2 (* a a)))
(assert (= b2 (* b b)))
(assert (= c2 (* c c)))
(assert (= a5 (* a2 a2 a)))
(assert (= b5 (* b2 b2 b)))
(assert (= c5 (* c2 c2 c)))
(assert (= (* (+ a5 b2 c2) (+ b5 a2 c2) (+ c5 a2 b2) opt) (+ (* (- a5 a2) (+ b5 a2 c2) (+ c5 a2 b2) ) (* (- b5 b2) (+ a5 b2 c2) (+ c5 a2 b2) ) (* (- c5 c2) (+ a5 b2 c2) (+ b5 a2 c2)))))
(minimize opt)
(check-sat)
(get-objectives)
